1699
1320
122
1804
1747
1025
2038
1395
820
1279
906
1801
124
1373
1875
2029
1981
1471
806
2090
239
819
910
89
1092
146
1626
596
665
1993
1899
1302
927
1807
281
582
799
663
594
634
1852
1937
80
1820
2130
1247
287
1675
626
615
